








































































































27 75 0 57 25 69 39 3 
37 66 19 53 51 7 76 60 
1 54 24 34 71 33 35 58 
47 59 8 46 14 50 32 62 40 
22 73 70 30 11 20 17 
12 38 48 9 21 67 15 56 
42 36 5 45 61 74 43 10 
49 18 63 31 41 64 44 
4 16 28 65 68 6 29 13 2 
26 72 55 23 52 
